 C  H  I  N Pb Li                       
   1.00000000000000     
     8.9984117681318398   -8.9984610365553372   -0.0000032973069804
     8.9963628010365237    8.9963549349965817    0.0116392482336473
    -0.0016988178805277   -0.0017238193547439   12.5619118088920612
   C    H    I    N    Pb   Li
     8    40    24    16     8     1
Direct
  0.2500016237091529  0.5260630950874443  0.1888620628470505
  0.7499998107857451  0.4775203318352581  0.2283390150897304
  0.2500004673051777  0.5262859388607311  0.8112039223302716
  0.7499962251073171  0.4780419218897407  0.7711734048488097
  0.7500016243909187  0.0228017030078931  0.1905963839013154
  0.2499998041659026  0.0266972921867961  0.2892820518881365
  0.7500004690586195  0.0227945954167765  0.8108545999672714
  0.2499962043989825  0.0259326556205295  0.7106771233243023
  0.2500010870874192  0.6296933659414989  0.3165016870506392
  0.8540059209418871  0.6030314551204867  0.2149244769399914
  0.2499989792447579  0.6290877536216826  0.6827042427476187
  0.8541873614036533  0.6037698164311820  0.7814721169120276
  0.2500001533400109  0.6840216889294481  0.1876872382570980
  0.9077536695666879  0.4762047274533003  0.2285835277352533
  0.2499994139134429  0.6842232086029796  0.8110807054379876
  0.9077218787102481  0.4766191877502877  0.7708081666839703
  0.2500026132810333  0.4233545542652806  0.3176896176823902
  0.6459996223473681  0.6030326645224875  0.2149205808347148
  0.2500002640281167  0.4227349334711050  0.6832406159669659
  0.6458043900174317  0.6037720417869821  0.7814704272068980
  0.2500026924305203  0.3682134696267880  0.1893484512225285
  0.5922505247882981  0.4762068220132960  0.2285751129282190
  0.2500015877550226  0.3684225471234441  0.8120367511535207
  0.5922740041559678  0.4766228225099667  0.7708069334629926
  0.2500008709311459  0.5256243375320082  0.1015698844023163
  0.7500000202589163  0.3916103187817939  0.2380234415158924
  0.2500005189950372  0.5264750750442388  0.8984931593290142
  0.7499992026973814  0.3919441093223028  0.7636675090952281
  0.7500010847665095  0.1235252635952406  0.3210603529727862
  0.3540384920973167  0.0239848375221570  0.1615437153167392
  0.7499989755193184  0.1243038713876672  0.6808833433188539
  0.3540309439049878  0.0240358672547387  0.8384377046113727
  0.7500001500073381  0.1801314792660023  0.1930950207864726
  0.4075024815386143  0.0264958990490882  0.2905752417787895
  0.7499994092349738  0.1801337908448701  0.8091606220858480
  0.4074983345554486  0.0257068171574844  0.7093916812765428
  0.7500026099553949  0.9166928076803913  0.3158579807905895
  0.1459670431645748  0.0239860410922716  0.1615398191607369
  0.7500002609059138  0.9174530596937913  0.6850820610046355
  0.1459607774829195  0.0240380972318803  0.8384360170109915
  0.7500026904951369  0.8648466930178387  0.1861914394017887
  0.0925016995293362  0.0264979852173326  0.2905668144559996
  0.7500015881144080  0.8648218239189021  0.8144778995499280
  0.0924975080031558  0.0257104571756628  0.7093904733427436
  0.7500008666220737  0.0252313927554368  0.1032476972414358
  0.2500000203871053  0.0287034335100671  0.3768204783198144
  0.7500005161397780  0.0246439237143363  0.8982139972384999
  0.2499992013195182  0.0273152678066282  0.6231243559550563
  0.2500011582179837  0.3143156346108924  0.5004530000380285
  0.7500009617225416  0.2455631172383121  0.5006585019810714
  0.9580412502893765  0.5283189137612183  0.4994493601832914
  0.0236276330159058  0.0273320023759211  0.4999528638264152
  0.2500008752408291  0.2556166430356228  0.0005352644161718
  0.7500008044801163  0.2762721919317812  0.0007052009703088
  0.0265280810130335  0.5254114785278716  0.9996997420078912
  0.9973486527559459  0.0252009629147167  0.9999841994291216
  0.9910384723394827  0.2847550663322664  0.7498752337799672
  0.9911190252618880  0.2845172443038706  0.2505750199423886
  0.9887987911673974  0.7698188710298197  0.7491737438235617
  0.9891880550062879  0.7695969308329325  0.2500627771979538
  0.7500011698579101  0.7960001671567767  0.5003653675524262
  0.2500009535369969  0.7371584266966167  0.4996595289182508
  0.4763734767155299  0.0273318986616573  0.4999565324075306
  0.5419598686223139  0.5283190179042307  0.4994457005227773
  0.7500008871958457  0.7562561611118994  0.0005554419141802
  0.2500007867419356  0.7964708438616128  0.9993816787407965
  0.5026494779314845  0.0252007349579486  0.9999835531770813
  0.4734700702457530  0.5254117084274625  0.9997003836692073
  0.5111985099613889  0.7698231644366160  0.7491733176698716
  0.5108131483549982  0.7696020463305331  0.2500622700320037
  0.5089588304360788  0.2847507716776292  0.7498756567724030
  0.5088821768361882  0.2845121308759175  0.2505755348580578
  0.2500027860626304  0.4343336999510470  0.2363310006924806
  0.6579535609480516  0.5234201818420701  0.2239576084054278
  0.2500011076121211  0.4342353473479363  0.7645105700628747
  0.6579287914885512  0.5239786123838925  0.7744400572844725
  0.2500012280293120  0.6182784440610831  0.2352897544709833
  0.8420494790115711  0.5234185994033140  0.2239631650265821
  0.2499996865358014  0.6181856091913787  0.7640005873539977
  0.8420648448593582  0.5239762058717474  0.7744404111764851
  0.7500027890365857  0.9297181106760988  0.2350715762060815
  0.1579574666553398  0.0256219834659817  0.2426308545553084
  0.7500011127758057  0.9299838852801088  0.7659132537265236
  0.1579522353642133  0.0251843401216405  0.7573332131403774
  0.7500012314247613  0.1135843633886893  0.2396504179794050
  0.3420455564960818  0.0256203991910908  0.2426364160906900
  0.7499996889134053  0.1138765171741269  0.7622511358846396
  0.3420413592368163  0.0251819361744552  0.7573335576962279
  0.9997059616143247  0.2780426051733542  0.5002200879971141
  0.0014857281813363  0.2779984609655699  0.0001795725045213
  0.0046925570934562  0.7762381629326356  0.4995358518811628
  0.0017767691154873  0.7723115889879182  0.9996468273115795
  0.4953094261258215  0.7762407427592990  0.4995361778087499
  0.4982254822830186  0.7723139896102822  0.9996471027781837
  0.5002960339706561  0.2780400298552266  0.5002197684924994
  0.4985165156583022  0.2779960562909594  0.0001792962794980
  0.7500005594558417  0.5763749975172843  0.4997310894379368
 
  0.00000000E+00  0.00000000E+00  0.00000000E+00
  0.00000000E+00  0.00000000E+00  0.00000000E+00
  0.00000000E+00  0.00000000E+00  0.00000000E+00
  0.00000000E+00  0.00000000E+00  0.00000000E+00
  0.00000000E+00  0.00000000E+00  0.00000000E+00
  0.00000000E+00  0.00000000E+00  0.00000000E+00
  0.00000000E+00  0.00000000E+00  0.00000000E+00
  0.00000000E+00  0.00000000E+00  0.00000000E+00
  0.00000000E+00  0.00000000E+00  0.00000000E+00
  0.00000000E+00  0.00000000E+00  0.00000000E+00
  0.00000000E+00  0.00000000E+00  0.00000000E+00
  0.00000000E+00  0.00000000E+00  0.00000000E+00
  0.00000000E+00  0.00000000E+00  0.00000000E+00
  0.00000000E+00  0.00000000E+00  0.00000000E+00
  0.00000000E+00  0.00000000E+00  0.00000000E+00
  0.00000000E+00  0.00000000E+00  0.00000000E+00
  0.00000000E+00  0.00000000E+00  0.00000000E+00
  0.00000000E+00  0.00000000E+00  0.00000000E+00
  0.00000000E+00  0.00000000E+00  0.00000000E+00
  0.00000000E+00  0.00000000E+00  0.00000000E+00
  0.00000000E+00  0.00000000E+00  0.00000000E+00
  0.00000000E+00  0.00000000E+00  0.00000000E+00
  0.00000000E+00  0.00000000E+00  0.00000000E+00
  0.00000000E+00  0.00000000E+00  0.00000000E+00
  0.00000000E+00  0.00000000E+00  0.00000000E+00
  0.00000000E+00  0.00000000E+00  0.00000000E+00
  0.00000000E+00  0.00000000E+00  0.00000000E+00
  0.00000000E+00  0.00000000E+00  0.00000000E+00
  0.00000000E+00  0.00000000E+00  0.00000000E+00
  0.00000000E+00  0.00000000E+00  0.00000000E+00
  0.00000000E+00  0.00000000E+00  0.00000000E+00
  0.00000000E+00  0.00000000E+00  0.00000000E+00
  0.00000000E+00  0.00000000E+00  0.00000000E+00
  0.00000000E+00  0.00000000E+00  0.00000000E+00
  0.00000000E+00  0.00000000E+00  0.00000000E+00
  0.00000000E+00  0.00000000E+00  0.00000000E+00
  0.00000000E+00  0.00000000E+00  0.00000000E+00
  0.00000000E+00  0.00000000E+00  0.00000000E+00
  0.00000000E+00  0.00000000E+00  0.00000000E+00
  0.00000000E+00  0.00000000E+00  0.00000000E+00
  0.00000000E+00  0.00000000E+00  0.00000000E+00
  0.00000000E+00  0.00000000E+00  0.00000000E+00
  0.00000000E+00  0.00000000E+00  0.00000000E+00
  0.00000000E+00  0.00000000E+00  0.00000000E+00
  0.00000000E+00  0.00000000E+00  0.00000000E+00
  0.00000000E+00  0.00000000E+00  0.00000000E+00
  0.00000000E+00  0.00000000E+00  0.00000000E+00
  0.00000000E+00  0.00000000E+00  0.00000000E+00
  0.00000000E+00  0.00000000E+00  0.00000000E+00
  0.00000000E+00  0.00000000E+00  0.00000000E+00
  0.00000000E+00  0.00000000E+00  0.00000000E+00
  0.00000000E+00  0.00000000E+00  0.00000000E+00
  0.00000000E+00  0.00000000E+00  0.00000000E+00
  0.00000000E+00  0.00000000E+00  0.00000000E+00
  0.00000000E+00  0.00000000E+00  0.00000000E+00
  0.00000000E+00  0.00000000E+00  0.00000000E+00
  0.00000000E+00  0.00000000E+00  0.00000000E+00
  0.00000000E+00  0.00000000E+00  0.00000000E+00
  0.00000000E+00  0.00000000E+00  0.00000000E+00
  0.00000000E+00  0.00000000E+00  0.00000000E+00
  0.00000000E+00  0.00000000E+00  0.00000000E+00
  0.00000000E+00  0.00000000E+00  0.00000000E+00
  0.00000000E+00  0.00000000E+00  0.00000000E+00
  0.00000000E+00  0.00000000E+00  0.00000000E+00
  0.00000000E+00  0.00000000E+00  0.00000000E+00
  0.00000000E+00  0.00000000E+00  0.00000000E+00
  0.00000000E+00  0.00000000E+00  0.00000000E+00
  0.00000000E+00  0.00000000E+00  0.00000000E+00
  0.00000000E+00  0.00000000E+00  0.00000000E+00
  0.00000000E+00  0.00000000E+00  0.00000000E+00
  0.00000000E+00  0.00000000E+00  0.00000000E+00
  0.00000000E+00  0.00000000E+00  0.00000000E+00
  0.00000000E+00  0.00000000E+00  0.00000000E+00
  0.00000000E+00  0.00000000E+00  0.00000000E+00
  0.00000000E+00  0.00000000E+00  0.00000000E+00
  0.00000000E+00  0.00000000E+00  0.00000000E+00
  0.00000000E+00  0.00000000E+00  0.00000000E+00
  0.00000000E+00  0.00000000E+00  0.00000000E+00
  0.00000000E+00  0.00000000E+00  0.00000000E+00
  0.00000000E+00  0.00000000E+00  0.00000000E+00
  0.00000000E+00  0.00000000E+00  0.00000000E+00
  0.00000000E+00  0.00000000E+00  0.00000000E+00
  0.00000000E+00  0.00000000E+00  0.00000000E+00
  0.00000000E+00  0.00000000E+00  0.00000000E+00
  0.00000000E+00  0.00000000E+00  0.00000000E+00
  0.00000000E+00  0.00000000E+00  0.00000000E+00
  0.00000000E+00  0.00000000E+00  0.00000000E+00
  0.00000000E+00  0.00000000E+00  0.00000000E+00
  0.00000000E+00  0.00000000E+00  0.00000000E+00
  0.00000000E+00  0.00000000E+00  0.00000000E+00
  0.00000000E+00  0.00000000E+00  0.00000000E+00
  0.00000000E+00  0.00000000E+00  0.00000000E+00
  0.00000000E+00  0.00000000E+00  0.00000000E+00
  0.00000000E+00  0.00000000E+00  0.00000000E+00
  0.00000000E+00  0.00000000E+00  0.00000000E+00
  0.00000000E+00  0.00000000E+00  0.00000000E+00
  0.00000000E+00  0.00000000E+00  0.00000000E+00
